param n_inputs:= 4;
param n_processes:= 2;
param n_grades:= 3;

param pulp_content := 
1 0.15
2 0.2
3 0.3
4 0.4;

param input_cost := 
1 5
2 6
3 8
4 10;

param process_eff := 		
1 0.9 
2 0.8;

param process_cost := 
1 20 
2 15;

param grade_demand :=
1 500
2 500
3 600;

param process_capacity:=
1 3000
2 3000;

param feasibility:
  1 2 3 4:=
1 0 0 1 1
2 1 1 0 1
3 1 1 1 0;